;(set-option :produce-unsat-cores true )
(set-logic ALL_SUPPORTED )
(declare-sort A$ 0 )
(declare-sort A_set$ 0 )
(declare-sort A_bool_fun$ 0 )
(declare-sort A_tree_bool_fun$ 0 )
(declare-sort A_a_tree_bool_fun_fun$ 0 )
(declare-codatatypes ()((A_tree$ (node$ (root$ A$ )(left$ A_tree$ )(right$ A_tree$ )))))
(declare-fun p$ (A$ A_tree$ )Bool )
(declare-fun t$ ()A_tree$ )
(declare-fun x$ ()A$ )
(declare-fun z1$ ()A$ )
(declare-fun z2$ ()A_tree$ )
(declare-fun z3$ ()A_tree$ )
(declare-fun member$ (A$ A_set$ )Bool )
(declare-fun fun_app$ (A_bool_fun$ A$ )Bool )
(declare-fun fun_app$a (A_tree_bool_fun$ A_tree$ )Bool )
(declare-fun fun_app$b (A_a_tree_bool_fun_fun$ A$ )A_tree_bool_fun$ )
(declare-fun set_tree$ (A_tree$ )A_set$ )
(declare-fun pred_tree$ (A_bool_fun$ A_tree$ )Bool )
(assert (! (not (p$ z1$ (node$ z1$ z2$ z3$ ))):named a0 ))
(assert (! (forall ((?v0 A$ )(?v1 A_tree$ )(?v2 A_tree$ )(?v3 A$ )(?v4 A_tree$ )(?v5 A_tree$ ))(= (= (node$ ?v0 ?v1 ?v2 )(node$ ?v3 ?v4 ?v5 ))(and (= ?v0 ?v3 )(and (= ?v1 ?v4 )(= ?v2 ?v5 ))))):named a1 ))
(assert (! (forall ((?v0 A_tree$ ))(=> (forall ((?v1 A$ )(?v2 A_tree$ )(?v3 A_tree$ ))(=> (= ?v0 (node$ ?v1 ?v2 ?v3 ))false ))false )):named a2 ))
(assert (! (forall ((?v0 A_tree$ ))(p$ (root$ ?v0 )?v0 )):named a3 ))
(assert (! (forall ((?v0 A_bool_fun$ )(?v1 A$ )(?v2 A_tree$ )(?v3 A_tree$ ))(! (= (pred_tree$ ?v0 (node$ ?v1 ?v2 ?v3 ))(and (fun_app$ ?v0 ?v1 )(and (pred_tree$ ?v0 ?v2 )(pred_tree$ ?v0 ?v3 )))):pattern ((pred_tree$ ?v0 (node$ ?v1 ?v2 ?v3 ))))):named a4 ))
(assert (! (forall ((?v0 A$ )(?v1 A_tree$ ))(=> (and (member$ ?v0 (set_tree$ (left$ ?v1 )))(p$ ?v0 (left$ ?v1 )))(p$ ?v0 ?v1 ))):named a5 ))
(assert (! (forall ((?v0 A$ )(?v1 A_tree$ ))(=> (and (member$ ?v0 (set_tree$ (right$ ?v1 )))(p$ ?v0 (right$ ?v1 )))(p$ ?v0 ?v1 ))):named a6 ))
(assert (! (member$ x$ (set_tree$ t$ )):named a7 ))
(assert (! (forall ((?v0 A$ )(?v1 A_tree$ )(?v2 A_tree$ ))(! (= (root$ (node$ ?v0 ?v1 ?v2 ))?v0 ):pattern ((node$ ?v0 ?v1 ?v2 )))):named a8 ))
(assert (! (forall ((?v0 A$ )(?v1 A_tree$ )(?v2 A_a_tree_bool_fun_fun$ ))(=> (and (member$ ?v0 (set_tree$ ?v1 ))(and (forall ((?v3 A$ )(?v4 A_tree$ )(?v5 A_tree$ ))(fun_app$a (fun_app$b ?v2 ?v3 )(node$ ?v3 ?v4 ?v5 )))(and (forall ((?v3 A$ )(?v4 A_tree$ )(?v5 A_tree$ )(?v6 A$ ))(=> (and (member$ ?v6 (set_tree$ ?v4 ))(fun_app$a (fun_app$b ?v2 ?v6 )?v4 ))(fun_app$a (fun_app$b ?v2 ?v6 )(node$ ?v3 ?v4 ?v5 ))))(forall ((?v3 A$ )(?v4 A_tree$ )(?v5 A_tree$ )(?v6 A$ ))(=> (and (member$ ?v6 (set_tree$ ?v5 ))(fun_app$a (fun_app$b ?v2 ?v6 )?v5 ))(fun_app$a (fun_app$b ?v2 ?v6 )(node$ ?v3 ?v4 ?v5 )))))))(fun_app$a (fun_app$b ?v2 ?v0 )?v1 ))):named a9 ))
(assert (! (forall ((?v0 A$ )(?v1 A_tree$ ))(=> (and (member$ ?v0 (set_tree$ ?v1 ))(and (forall ((?v2 A_tree$ )(?v3 A_tree$ ))(=> (= ?v1 (node$ ?v0 ?v2 ?v3 ))false ))(and (forall ((?v2 A$ )(?v3 A_tree$ )(?v4 A_tree$ ))(=> (and (= ?v1 (node$ ?v2 ?v3 ?v4 ))(member$ ?v0 (set_tree$ ?v3 )))false ))(forall ((?v2 A$ )(?v3 A_tree$ )(?v4 A_tree$ ))(=> (and (= ?v1 (node$ ?v2 ?v3 ?v4 ))(member$ ?v0 (set_tree$ ?v4 )))false )))))false )):named a10 ))
(assert (! (forall ((?v0 A$ )(?v1 A_tree$ )(?v2 A$ )(?v3 A_tree$ ))(=> (member$ ?v0 (set_tree$ ?v1 ))(member$ ?v0 (set_tree$ (node$ ?v2 ?v1 ?v3 ))))):named a11 ))
(assert (! (forall ((?v0 A_tree$ ))(= (node$ (root$ ?v0 )(left$ ?v0 )(right$ ?v0 ))?v0 )):named a12 ))
(check-sat )
;(get-unsat-core )
